c This is QMaxSAT 2017 based on 14.07
c This is Glucose 3.0
c This is MiniSat 2.2.0
c WARNING: for repeatability, setting FPU to use double precision
c card = mrwto, comp = 0, pmodel = 0, narr = 6, mct = 29, verb = 0
cr firstCPXsol 0 0 0
c top = 167313
c |  Number of variables:    2312                                             |
c |  Number of clauses:      66218                                            |
c |  Weight of hard clauses: 167313                                           |
c |  Number of soft clauses: 6552                                             |
c |  Number of unit soft clauses: 0                                           |
c |  Maximum Cardinality (by unit): 1301172      (0           )               |
c last restart ## conflicts  :  37 562 
o 3395 | cpuTime 0.021647 s
c Sum of weights = 216862
c A number of soft clauses remained = 1092
c MRWTO encoding for Pseudo-Boolean Constraints
c sizeMax=3395
c No.0 Divisor=16	generated by pow1
c No.1 Divisor=16	generated by pow1
c No.2 Divisor=16	generated by pow1
c p0= 16	p1= 16	p2= 16	
c number of digits = 4
c linkingVar[0].size = 16, linkingVar[1].size = 16, linkingVar[2].size = 14, linkingVar[3].size = 1, 
c Pseudo-Boolean Constraints: 27344 variables and 347021 clauses
c Sum of weights = 216862
c A number of soft clauses remained = 1092
c MRWTO encoding for Pseudo-Boolean Constraints
c sizeMax=3395
c No.0 Divisor=16	generated by pow1
c No.1 Divisor=16	generated by pow1
c No.2 Divisor=16	generated by pow1
c p0= 16	p1= 16	p2= 16	
c number of digits = 4
c linkingVar[0].size = 16, linkingVar[1].size = 16, linkingVar[2].size = 14, linkingVar[3].size = 1, 
c Pseudo-Boolean Constraints: 27344 variables and 347021 clauses
c Sum of weights = 216862
c A number of soft clauses remained = 1092
c MRWTO encoding for Pseudo-Boolean Constraints
c sizeMax=3395
c No.0 Divisor=16	generated by pow1
c No.1 Divisor=16	generated by pow1
c No.2 Divisor=16	generated by pow1
c p0= 16	p1= 16	p2= 16	
c number of digits = 4
c linkingVar[0].size = 16, linkingVar[1].size = 16, linkingVar[2].size = 14, linkingVar[3].size = 1, 
c Pseudo-Boolean Constraints: 27344 variables and 347021 clauses
c Sum of weights = 216862
c A number of soft clauses remained = 1092
c MRWTO encoding for Pseudo-Boolean Constraints
c sizeMax=3395
c No.0 Divisor=16	generated by pow1
c No.1 Divisor=16	generated by pow1
c No.2 Divisor=16	generated by pow1
c p0= 16	p1= 16	p2= 16	
c number of digits = 4
c linkingVar[0].size = 16, linkingVar[1].size = 16, linkingVar[2].size = 14, linkingVar[3].size = 1, 
c Pseudo-Boolean Constraints: 27344 variables and 347021 clauses
c Sum of weights = 216862
c A number of soft clauses remained = 1092
c MRWTO encoding for Pseudo-Boolean Constraints
c sizeMax=3395
c No.0 Divisor=16	generated by pow1
c No.1 Divisor=16	generated by pow1
c No.2 Divisor=16	generated by pow1
c p0= 16	p1= 16	p2= 16	
c number of digits = 4
c linkingVar[0].size = 16, linkingVar[1].size = 16, linkingVar[2].size = 14, linkingVar[3].size = 1, 
c Pseudo-Boolean Constraints: 27344 variables and 347021 clauses
c Sum of weights = 216862
c A number of soft clauses remained = 1092
c MRWTO encoding for Pseudo-Boolean Constraints
c sizeMax=3395
c No.0 Divisor=16	generated by pow1
c No.1 Divisor=16	generated by pow1
c No.2 Divisor=16	generated by pow1
c p0= 16	p1= 16	p2= 16	
c number of digits = 4
c linkingVar[0].size = 16, linkingVar[1].size = 16, linkingVar[2].size = 14, linkingVar[3].size = 1, 
c Pseudo-Boolean Constraints: 27344 variables and 347021 clauses
c last restart ## conflicts  :  41 4358 
o 2177 | cpuTime 0.430903 s
c last restart ## conflicts  :  789 5065 
o 1683 | cpuTime 0.597384 s
c last restart ## conflicts  :  179 2865 
o 1635 | cpuTime 1.82993 s
c last restart ## conflicts  :  541 3256 
o 1594 | cpuTime 2.38583 s
c last restart ## conflicts  :  318 3006 
o 1523 | cpuTime 3.42165 s
c last restart ## conflicts  :  331 1980 
o 1510 | cpuTime 4.10209 s
c last restart ## conflicts  :  247 2927 
o 1343 | cpuTime 4.26397 s
c last restart ## conflicts  :  248 2842 
o 1312 | cpuTime 4.96925 s
c last restart ## conflicts  :  249 3153 
o 1238 | cpuTime 5.44693 s
c last restart ## conflicts  :  222 3122 
o 1110 | cpuTime 7.00889 s
c last restart ## conflicts  :  216 2147 
o 1092 | cpuTime 20.7209 s
c last restart ## conflicts  :  268 1922 
o 963 | cpuTime 24.806 s
c last restart ## conflicts  :  314 2184 
o 953 | cpuTime 2292.24 s
c last restart ## conflicts  :  491 1588 
o 948 | cpuTime 2292.6 s
s UNKNOWN
c Search is stopped by a limit (maybe time-limit)
cr positiVarArr: [ | 7(1->2) | 53(1->14) | 82(1->9) | 130(1->23) | 163(1->22) | 204(1->29) | 230(2->21) | 269(3->26) | 296(4->19) | 314(5->3) | 358(6->13) | 387(7->8) | 414(8->1) | 452(9->5) | 479(10->1) | 519(11->4) | 555(12->6) | 610(13->27) | 635(14->18) | 671(15->20) | 709(16->24) | 734(17->15) | 764(18->11) | 812(19->25) | 817(20->1) | 883(21->28) | 896(22->7) | 940(23->17) | 954(24->1) | 1007(25->16) | 1035(26->10) | 1058(27->1) | 1093(28->1) | 1139(29->12) | ]
cr the 1-th chain: [ 1->2->21->28->1 ] (#non-depot=3) {#cumul.=4}
cr the 2-th chain: [ 1->14->18->11->4->19->25->16->24->1 ] (#non-depot=8) {#cumul.=12}
cr the 3-th chain: [ 1->9->5->3->26->10->1 ] (#non-depot=5) {#cumul.=17}
cr the 4-th chain: [ 1->23->17->15->20->1 ] (#non-depot=4) {#cumul.=21}
cr the 5-th chain: [ 1->22->7->8->1 ] (#non-depot=3) {#cumul.=24}
cr the 6-th chain: [ 1->29->12->6->13->27->1 ] (#non-depot=5) {#cumul.=29}
c Latest Answer = 0 by 15 loops
c restarts              : 65736
c conflicts             : 19535787       (5435 /sec)
c decisions             : 71717464       (0.00 % random) (19951 /sec)
c propagations          : 26347294132    (7329618 /sec)
c conflict literals     : 1569975229     (38.81 % deleted)
c Memory used           : 569.00 MB
c CPU time              : 3594.63 s
